(set-info :smt-lib-version 2.6)
(set-info :category "crafted")
(set-logic QF_FF)
(define-sort FF0 () (_ FiniteField 52435875175126190479447740508185965837690552500527637822603658699938581184513))
(declare-fun h () Bool)
(declare-fun g () Bool)
(declare-fun f () Bool)
(declare-fun e () Bool)
(declare-fun d () Bool)
(declare-fun c () Bool)
(declare-fun b () Bool)
(declare-fun a () Bool)
(declare-fun out () FF0)
(declare-fun _14 () FF0)
(declare-fun _13 () FF0)
(declare-fun _7 () FF0)
(declare-fun _12 () FF0)
(declare-fun _6 () FF0)
(declare-fun _11 () FF0)
(declare-fun _5 () FF0)
(declare-fun _10 () FF0)
(declare-fun _4 () FF0)
(declare-fun _9 () FF0)
(declare-fun _3 () FF0)
(declare-fun _8 () FF0)
(declare-fun _2 () FF0)
(declare-fun _1 () FF0)
(declare-fun _0 () FF0)
(assert 
  (let ((let0 h))
  (let ((let1 g))
  (let ((let2 f))
  (let ((let3 e))
  (let ((let4 d))
  (let ((let5 c))
  (let ((let6 b))
  (let ((let7 a))
  (let ((let8 (or let7 let6 let5 let4 let3 let2 let1 let0)))
  (let ((let9 out))
  (let ((let10 (as ff1 FF0)))
  (let ((let11 (= let10 let9)))
  (let ((let12 (= let11 let8)))
  (let ((let13 (as ff0 FF0)))
  (let ((let14 (= let13 let9)))
  (let ((let15 (or let11 let14)))
  (let ((let16 (and let15 let12)))
  (let ((let17 _14))
  (let ((let18 (= let17 let9)))
  (let ((let19 (as ff52435875175126190479447740508185965837690552500527637822603658699938581184512 FF0)))
  (let ((let20 (ff.mul let17 let19)))
  (let ((let21 _13))
  (let ((let22 _7))
  (let ((let23 (ff.add let22 let21 let20)))
  (let ((let24 (ff.mul let21 let22)))
  (let ((let25 (= let24 let23)))
  (let ((let26 (ff.mul let21 let19)))
  (let ((let27 _12))
  (let ((let28 _6))
  (let ((let29 (ff.add let28 let27 let26)))
  (let ((let30 (ff.mul let27 let28)))
  (let ((let31 (= let30 let29)))
  (let ((let32 (ff.mul let27 let19)))
  (let ((let33 _11))
  (let ((let34 _5))
  (let ((let35 (ff.add let34 let33 let32)))
  (let ((let36 (ff.mul let33 let34)))
  (let ((let37 (= let36 let35)))
  (let ((let38 (ff.mul let33 let19)))
  (let ((let39 _10))
  (let ((let40 _4))
  (let ((let41 (ff.add let40 let39 let38)))
  (let ((let42 (ff.mul let39 let40)))
  (let ((let43 (= let42 let41)))
  (let ((let44 (ff.mul let39 let19)))
  (let ((let45 _9))
  (let ((let46 _3))
  (let ((let47 (ff.add let46 let45 let44)))
  (let ((let48 (ff.mul let45 let46)))
  (let ((let49 (= let48 let47)))
  (let ((let50 (ff.mul let45 let19)))
  (let ((let51 _8))
  (let ((let52 _2))
  (let ((let53 (ff.add let52 let51 let50)))
  (let ((let54 (ff.mul let51 let52)))
  (let ((let55 (= let54 let53)))
  (let ((let56 (ff.mul let51 let19)))
  (let ((let57 _1))
  (let ((let58 _0))
  (let ((let59 (ff.add let58 let57 let56)))
  (let ((let60 (ff.mul let58 let57)))
  (let ((let61 (= let60 let59)))
  (let ((let62 (ff.mul let22 let22)))
  (let ((let63 (= let62 let22)))
  (let ((let64 (ff.mul let28 let28)))
  (let ((let65 (= let64 let28)))
  (let ((let66 (ff.mul let40 let40)))
  (let ((let67 (= let66 let40)))
  (let ((let68 (ff.mul let46 let46)))
  (let ((let69 (= let68 let46)))
  (let ((let70 (ff.mul let52 let52)))
  (let ((let71 (= let70 let52)))
  (let ((let72 (ff.mul let57 let57)))
  (let ((let73 (= let72 let57)))
  (let ((let74 (ff.mul let58 let58)))
  (let ((let75 (= let74 let58)))
  (let ((let76 (and let75 let73 let71 let69 let67 let65 let63 let61 let55 let49 let43 let37 let31 let25 let18)))
  (let ((let77 (ite let0 let10 let13)))
  (let ((let78 (= let22 let77)))
  (let ((let79 (ite let2 let10 let13)))
  (let ((let80 (= let34 let79)))
  (let ((let81 (ite let3 let10 let13)))
  (let ((let82 (= let40 let81)))
  (let ((let83 (ite let6 let10 let13)))
  (let ((let84 (= let57 let83)))
  (let ((let85 (ite let5 let10 let13)))
  (let ((let86 (= let52 let85)))
  (let ((let87 (ite let1 let10 let13)))
  (let ((let88 (= let28 let87)))
  (let ((let89 (ite let4 let10 let13)))
  (let ((let90 (= let46 let89)))
  (let ((let91 (ite let7 let10 let13)))
  (let ((let92 (= let58 let91)))
  (let ((let93 (and let92 let90 let88 let86 let84 let82 let80 let78)))
  (let ((let94 (and let93 let76)))
  (let ((let95 (=> let94 let16)))
  (let ((let96 (not let95)))
  let96
)))))))))))))))))))))))))))))))))))))))))))))))))))))))))))))))))))))))))))))))))))))))))))))))))
)
(check-sat)
